NAME : RC106
TYPE : CVRPTW
DIMENSION : 26
VEHICLES : 3
CAPACITY : 200
SERVICE_TIME : 10
SCALE : 10
EDGE_WEIGHT_TYPE : FLOOR_2D
NODE_COORD_SECTION
1 40 50
2 25 85
3 22 75
4 22 85
5 20 80
6 20 85
7 18 75
8 15 75
9 15 80
10 10 35
11 10 40
12 8 40
13 8 45
14 5 35
15 5 45
16 2 40
17 0 40
18 0 45
19 44 5
20 42 10
21 42 15
22 40 5
23 40 15
24 38 5
25 38 15
26 35 5
DEMAND_SECTION
1 0
2 20
3 30
4 10
5 40
6 20
7 20
8 20
9 10
10 20
11 30
12 40
13 20
14 10
15 10
16 20
17 20
18 20
19 20
20 40
21 10
22 10
23 40
24 30
25 10
26 20
TIME_WINDOW_SECTION
1 0 240
2 130 190
3 35 95
4 94 154
5 126 186
6 40 100
7 80 140
8 64 124
9 76 136
10 76 136
11 104 164
12 44 104
13 49 109
14 127 187
15 35 95
16 43 103
17 57 117
18 129 189
19 72 132
20 57 117
21 107 167
22 52 112
23 77 137
24 50 110
25 133 193
26 124 184
DEPOT_SECTION
1 
-1
EOF
